Minimize
    r
Subject to
 demand_flow: 
 x_111 + x_121 + x_131 + x_141 = 3
 x_112 + x_122 + x_132 + x_142 = 4
 x_113 + x_123 + x_133 + x_143 = 5
 x_114 + x_124 + x_134 + x_144 = 6
 x_115 + x_125 + x_135 + x_145 = 7
 x_116 + x_126 + x_136 + x_146 = 8
 x_117 + x_127 + x_137 + x_147 = 9
 x_118 + x_128 + x_138 + x_148 = 10
 x_119 + x_129 + x_139 + x_149 = 11
 x_211 + x_221 + x_231 + x_241 = 5
 x_212 + x_222 + x_232 + x_242 = 6
 x_213 + x_223 + x_233 + x_243 = 7
 x_214 + x_224 + x_234 + x_244 = 8
 x_215 + x_225 + x_235 + x_245 = 9
 x_216 + x_226 + x_236 + x_246 = 10
 x_217 + x_227 + x_237 + x_247 = 11
 x_218 + x_228 + x_238 + x_248 = 12
 x_219 + x_229 + x_239 + x_249 = 13
 x_311 + x_321 + x_331 + x_341 = 7
 x_312 + x_322 + x_332 + x_342 = 8
 x_313 + x_323 + x_333 + x_343 = 9
 x_314 + x_324 + x_334 + x_344 = 10
 x_315 + x_325 + x_335 + x_345 = 11
 x_316 + x_326 + x_336 + x_346 = 12
 x_317 + x_327 + x_337 + x_347 = 13
 x_318 + x_328 + x_338 + x_348 = 14
 x_319 + x_329 + x_339 + x_349 = 15
 x_411 + x_421 + x_431 + x_441 = 9
 x_412 + x_422 + x_432 + x_442 = 10
 x_413 + x_423 + x_433 + x_443 = 11
 x_414 + x_424 + x_434 + x_444 = 12
 x_415 + x_425 + x_435 + x_445 = 13
 x_416 + x_426 + x_436 + x_446 = 14
 x_417 + x_427 + x_437 + x_447 = 15
 x_418 + x_428 + x_438 + x_448 = 16
 x_419 + x_429 + x_439 + x_449 = 17
 x_511 + x_521 + x_531 + x_541 = 11
 x_512 + x_522 + x_532 + x_542 = 12
 x_513 + x_523 + x_533 + x_543 = 13
 x_514 + x_524 + x_534 + x_544 = 14
 x_515 + x_525 + x_535 + x_545 = 15
 x_516 + x_526 + x_536 + x_546 = 16
 x_517 + x_527 + x_537 + x_547 = 17
 x_518 + x_528 + x_538 + x_548 = 18
 x_519 + x_529 + x_539 + x_549 = 19
 x_611 + x_621 + x_631 + x_641 = 13
 x_612 + x_622 + x_632 + x_642 = 14
 x_613 + x_623 + x_633 + x_643 = 15
 x_614 + x_624 + x_634 + x_644 = 16
 x_615 + x_625 + x_635 + x_645 = 17
 x_616 + x_626 + x_636 + x_646 = 18
 x_617 + x_627 + x_637 + x_647 = 19
 x_618 + x_628 + x_638 + x_648 = 20
 x_619 + x_629 + x_639 + x_649 = 21
 x_711 + x_721 + x_731 + x_741 = 15
 x_712 + x_722 + x_732 + x_742 = 16
 x_713 + x_723 + x_733 + x_743 = 17
 x_714 + x_724 + x_734 + x_744 = 18
 x_715 + x_725 + x_735 + x_745 = 19
 x_716 + x_726 + x_736 + x_746 = 20
 x_717 + x_727 + x_737 + x_747 = 21
 x_718 + x_728 + x_738 + x_748 = 22
 x_719 + x_729 + x_739 + x_749 = 23
 x_811 + x_821 + x_831 + x_841 = 17
 x_812 + x_822 + x_832 + x_842 = 18
 x_813 + x_823 + x_833 + x_843 = 19
 x_814 + x_824 + x_834 + x_844 = 20
 x_815 + x_825 + x_835 + x_845 = 21
 x_816 + x_826 + x_836 + x_846 = 22
 x_817 + x_827 + x_837 + x_847 = 23
 x_818 + x_828 + x_838 + x_848 = 24
 x_819 + x_829 + x_839 + x_849 = 25
 x_911 + x_921 + x_931 + x_941 = 19
 x_912 + x_922 + x_932 + x_942 = 20
 x_913 + x_923 + x_933 + x_943 = 21
 x_914 + x_924 + x_934 + x_944 = 22
 x_915 + x_925 + x_935 + x_945 = 23
 x_916 + x_926 + x_936 + x_946 = 24
 x_917 + x_927 + x_937 + x_947 = 25
 x_918 + x_928 + x_938 + x_948 = 26
 x_919 + x_929 + x_939 + x_949 = 27
capacity_st: 
 x_111 + x_112 + x_113 + x_114 + x_115 + x_116 + x_117 + x_118 + x_119 - c_11 <= 0
 x_121 + x_122 + x_123 + x_124 + x_125 + x_126 + x_127 + x_128 + x_129 - c_12 <= 0
 x_131 + x_132 + x_133 + x_134 + x_135 + x_136 + x_137 + x_138 + x_139 - c_13 <= 0
 x_141 + x_142 + x_143 + x_144 + x_145 + x_146 + x_147 + x_148 + x_149 - c_14 <= 0
 x_211 + x_212 + x_213 + x_214 + x_215 + x_216 + x_217 + x_218 + x_219 - c_21 <= 0
 x_221 + x_222 + x_223 + x_224 + x_225 + x_226 + x_227 + x_228 + x_229 - c_22 <= 0
 x_231 + x_232 + x_233 + x_234 + x_235 + x_236 + x_237 + x_238 + x_239 - c_23 <= 0
 x_241 + x_242 + x_243 + x_244 + x_245 + x_246 + x_247 + x_248 + x_249 - c_24 <= 0
 x_311 + x_312 + x_313 + x_314 + x_315 + x_316 + x_317 + x_318 + x_319 - c_31 <= 0
 x_321 + x_322 + x_323 + x_324 + x_325 + x_326 + x_327 + x_328 + x_329 - c_32 <= 0
 x_331 + x_332 + x_333 + x_334 + x_335 + x_336 + x_337 + x_338 + x_339 - c_33 <= 0
 x_341 + x_342 + x_343 + x_344 + x_345 + x_346 + x_347 + x_348 + x_349 - c_34 <= 0
 x_411 + x_412 + x_413 + x_414 + x_415 + x_416 + x_417 + x_418 + x_419 - c_41 <= 0
 x_421 + x_422 + x_423 + x_424 + x_425 + x_426 + x_427 + x_428 + x_429 - c_42 <= 0
 x_431 + x_432 + x_433 + x_434 + x_435 + x_436 + x_437 + x_438 + x_439 - c_43 <= 0
 x_441 + x_442 + x_443 + x_444 + x_445 + x_446 + x_447 + x_448 + x_449 - c_44 <= 0
 x_511 + x_512 + x_513 + x_514 + x_515 + x_516 + x_517 + x_518 + x_519 - c_51 <= 0
 x_521 + x_522 + x_523 + x_524 + x_525 + x_526 + x_527 + x_528 + x_529 - c_52 <= 0
 x_531 + x_532 + x_533 + x_534 + x_535 + x_536 + x_537 + x_538 + x_539 - c_53 <= 0
 x_541 + x_542 + x_543 + x_544 + x_545 + x_546 + x_547 + x_548 + x_549 - c_54 <= 0
 x_611 + x_612 + x_613 + x_614 + x_615 + x_616 + x_617 + x_618 + x_619 - c_61 <= 0
 x_621 + x_622 + x_623 + x_624 + x_625 + x_626 + x_627 + x_628 + x_629 - c_62 <= 0
 x_631 + x_632 + x_633 + x_634 + x_635 + x_636 + x_637 + x_638 + x_639 - c_63 <= 0
 x_641 + x_642 + x_643 + x_644 + x_645 + x_646 + x_647 + x_648 + x_649 - c_64 <= 0
 x_711 + x_712 + x_713 + x_714 + x_715 + x_716 + x_717 + x_718 + x_719 - c_71 <= 0
 x_721 + x_722 + x_723 + x_724 + x_725 + x_726 + x_727 + x_728 + x_729 - c_72 <= 0
 x_731 + x_732 + x_733 + x_734 + x_735 + x_736 + x_737 + x_738 + x_739 - c_73 <= 0
 x_741 + x_742 + x_743 + x_744 + x_745 + x_746 + x_747 + x_748 + x_749 - c_74 <= 0
 x_811 + x_812 + x_813 + x_814 + x_815 + x_816 + x_817 + x_818 + x_819 - c_81 <= 0
 x_821 + x_822 + x_823 + x_824 + x_825 + x_826 + x_827 + x_828 + x_829 - c_82 <= 0
 x_831 + x_832 + x_833 + x_834 + x_835 + x_836 + x_837 + x_838 + x_839 - c_83 <= 0
 x_841 + x_842 + x_843 + x_844 + x_845 + x_846 + x_847 + x_848 + x_849 - c_84 <= 0
 x_911 + x_912 + x_913 + x_914 + x_915 + x_916 + x_917 + x_918 + x_919 - c_91 <= 0
 x_921 + x_922 + x_923 + x_924 + x_925 + x_926 + x_927 + x_928 + x_929 - c_92 <= 0
 x_931 + x_932 + x_933 + x_934 + x_935 + x_936 + x_937 + x_938 + x_939 - c_93 <= 0
 x_941 + x_942 + x_943 + x_944 + x_945 + x_946 + x_947 + x_948 + x_949 - c_94 <= 0
capacity_td: 
 x_111 + x_211 + x_311 + x_411 + x_511 + x_611 + x_711 + x_811 + x_911 - d_11 <= 0
 x_121 + x_221 + x_321 + x_421 + x_521 + x_621 + x_721 + x_821 + x_921 - d_21 <= 0
 x_131 + x_231 + x_331 + x_431 + x_531 + x_631 + x_731 + x_831 + x_931 - d_31 <= 0
 x_141 + x_241 + x_341 + x_441 + x_541 + x_641 + x_741 + x_841 + x_941 - d_41 <= 0
 x_112 + x_212 + x_312 + x_412 + x_512 + x_612 + x_712 + x_812 + x_912 - d_12 <= 0
 x_122 + x_222 + x_322 + x_422 + x_522 + x_622 + x_722 + x_822 + x_922 - d_22 <= 0
 x_132 + x_232 + x_332 + x_432 + x_532 + x_632 + x_732 + x_832 + x_932 - d_32 <= 0
 x_142 + x_242 + x_342 + x_442 + x_542 + x_642 + x_742 + x_842 + x_942 - d_42 <= 0
 x_113 + x_213 + x_313 + x_413 + x_513 + x_613 + x_713 + x_813 + x_913 - d_13 <= 0
 x_123 + x_223 + x_323 + x_423 + x_523 + x_623 + x_723 + x_823 + x_923 - d_23 <= 0
 x_133 + x_233 + x_333 + x_433 + x_533 + x_633 + x_733 + x_833 + x_933 - d_33 <= 0
 x_143 + x_243 + x_343 + x_443 + x_543 + x_643 + x_743 + x_843 + x_943 - d_43 <= 0
 x_114 + x_214 + x_314 + x_414 + x_514 + x_614 + x_714 + x_814 + x_914 - d_14 <= 0
 x_124 + x_224 + x_324 + x_424 + x_524 + x_624 + x_724 + x_824 + x_924 - d_24 <= 0
 x_134 + x_234 + x_334 + x_434 + x_534 + x_634 + x_734 + x_834 + x_934 - d_34 <= 0
 x_144 + x_244 + x_344 + x_444 + x_544 + x_644 + x_744 + x_844 + x_944 - d_44 <= 0
 x_115 + x_215 + x_315 + x_415 + x_515 + x_615 + x_715 + x_815 + x_915 - d_15 <= 0
 x_125 + x_225 + x_325 + x_425 + x_525 + x_625 + x_725 + x_825 + x_925 - d_25 <= 0
 x_135 + x_235 + x_335 + x_435 + x_535 + x_635 + x_735 + x_835 + x_935 - d_35 <= 0
 x_145 + x_245 + x_345 + x_445 + x_545 + x_645 + x_745 + x_845 + x_945 - d_45 <= 0
 x_116 + x_216 + x_316 + x_416 + x_516 + x_616 + x_716 + x_816 + x_916 - d_16 <= 0
 x_126 + x_226 + x_326 + x_426 + x_526 + x_626 + x_726 + x_826 + x_926 - d_26 <= 0
 x_136 + x_236 + x_336 + x_436 + x_536 + x_636 + x_736 + x_836 + x_936 - d_36 <= 0
 x_146 + x_246 + x_346 + x_446 + x_546 + x_646 + x_746 + x_846 + x_946 - d_46 <= 0
 x_117 + x_217 + x_317 + x_417 + x_517 + x_617 + x_717 + x_817 + x_917 - d_17 <= 0
 x_127 + x_227 + x_327 + x_427 + x_527 + x_627 + x_727 + x_827 + x_927 - d_27 <= 0
 x_137 + x_237 + x_337 + x_437 + x_537 + x_637 + x_737 + x_837 + x_937 - d_37 <= 0
 x_147 + x_247 + x_347 + x_447 + x_547 + x_647 + x_747 + x_847 + x_947 - d_47 <= 0
 x_118 + x_218 + x_318 + x_418 + x_518 + x_618 + x_718 + x_818 + x_918 - d_18 <= 0
 x_128 + x_228 + x_328 + x_428 + x_528 + x_628 + x_728 + x_828 + x_928 - d_28 <= 0
 x_138 + x_238 + x_338 + x_438 + x_538 + x_638 + x_738 + x_838 + x_938 - d_38 <= 0
 x_148 + x_248 + x_348 + x_448 + x_548 + x_648 + x_748 + x_848 + x_948 - d_48 <= 0
 x_119 + x_219 + x_319 + x_419 + x_519 + x_619 + x_719 + x_819 + x_919 - d_19 <= 0
 x_129 + x_229 + x_329 + x_429 + x_529 + x_629 + x_729 + x_829 + x_929 - d_29 <= 0
 x_139 + x_239 + x_339 + x_439 + x_539 + x_639 + x_739 + x_839 + x_939 - d_39 <= 0
 x_149 + x_249 + x_349 + x_449 + x_549 + x_649 + x_749 + x_849 + x_949 - d_49 <= 0
split_paths: 
 u_111 + u_121 + u_131 + u_141 = 2
 u_112 + u_122 + u_132 + u_142 = 2
 u_113 + u_123 + u_133 + u_143 = 2
 u_114 + u_124 + u_134 + u_144 = 2
 u_115 + u_125 + u_135 + u_145 = 2
 u_116 + u_126 + u_136 + u_146 = 2
 u_117 + u_127 + u_137 + u_147 = 2
 u_118 + u_128 + u_138 + u_148 = 2
 u_119 + u_129 + u_139 + u_149 = 2
 u_211 + u_221 + u_231 + u_241 = 2
 u_212 + u_222 + u_232 + u_242 = 2
 u_213 + u_223 + u_233 + u_243 = 2
 u_214 + u_224 + u_234 + u_244 = 2
 u_215 + u_225 + u_235 + u_245 = 2
 u_216 + u_226 + u_236 + u_246 = 2
 u_217 + u_227 + u_237 + u_247 = 2
 u_218 + u_228 + u_238 + u_248 = 2
 u_219 + u_229 + u_239 + u_249 = 2
 u_311 + u_321 + u_331 + u_341 = 2
 u_312 + u_322 + u_332 + u_342 = 2
 u_313 + u_323 + u_333 + u_343 = 2
 u_314 + u_324 + u_334 + u_344 = 2
 u_315 + u_325 + u_335 + u_345 = 2
 u_316 + u_326 + u_336 + u_346 = 2
 u_317 + u_327 + u_337 + u_347 = 2
 u_318 + u_328 + u_338 + u_348 = 2
 u_319 + u_329 + u_339 + u_349 = 2
 u_411 + u_421 + u_431 + u_441 = 2
 u_412 + u_422 + u_432 + u_442 = 2
 u_413 + u_423 + u_433 + u_443 = 2
 u_414 + u_424 + u_434 + u_444 = 2
 u_415 + u_425 + u_435 + u_445 = 2
 u_416 + u_426 + u_436 + u_446 = 2
 u_417 + u_427 + u_437 + u_447 = 2
 u_418 + u_428 + u_438 + u_448 = 2
 u_419 + u_429 + u_439 + u_449 = 2
 u_511 + u_521 + u_531 + u_541 = 2
 u_512 + u_522 + u_532 + u_542 = 2
 u_513 + u_523 + u_533 + u_543 = 2
 u_514 + u_524 + u_534 + u_544 = 2
 u_515 + u_525 + u_535 + u_545 = 2
 u_516 + u_526 + u_536 + u_546 = 2
 u_517 + u_527 + u_537 + u_547 = 2
 u_518 + u_528 + u_538 + u_548 = 2
 u_519 + u_529 + u_539 + u_549 = 2
 u_611 + u_621 + u_631 + u_641 = 2
 u_612 + u_622 + u_632 + u_642 = 2
 u_613 + u_623 + u_633 + u_643 = 2
 u_614 + u_624 + u_634 + u_644 = 2
 u_615 + u_625 + u_635 + u_645 = 2
 u_616 + u_626 + u_636 + u_646 = 2
 u_617 + u_627 + u_637 + u_647 = 2
 u_618 + u_628 + u_638 + u_648 = 2
 u_619 + u_629 + u_639 + u_649 = 2
 u_711 + u_721 + u_731 + u_741 = 2
 u_712 + u_722 + u_732 + u_742 = 2
 u_713 + u_723 + u_733 + u_743 = 2
 u_714 + u_724 + u_734 + u_744 = 2
 u_715 + u_725 + u_735 + u_745 = 2
 u_716 + u_726 + u_736 + u_746 = 2
 u_717 + u_727 + u_737 + u_747 = 2
 u_718 + u_728 + u_738 + u_748 = 2
 u_719 + u_729 + u_739 + u_749 = 2
 u_811 + u_821 + u_831 + u_841 = 2
 u_812 + u_822 + u_832 + u_842 = 2
 u_813 + u_823 + u_833 + u_843 = 2
 u_814 + u_824 + u_834 + u_844 = 2
 u_815 + u_825 + u_835 + u_845 = 2
 u_816 + u_826 + u_836 + u_846 = 2
 u_817 + u_827 + u_837 + u_847 = 2
 u_818 + u_828 + u_838 + u_848 = 2
 u_819 + u_829 + u_839 + u_849 = 2
 u_911 + u_921 + u_931 + u_941 = 2
 u_912 + u_922 + u_932 + u_942 = 2
 u_913 + u_923 + u_933 + u_943 = 2
 u_914 + u_924 + u_934 + u_944 = 2
 u_915 + u_925 + u_935 + u_945 = 2
 u_916 + u_926 + u_936 + u_946 = 2
 u_917 + u_927 + u_937 + u_947 = 2
 u_918 + u_928 + u_938 + u_948 = 2
 u_919 + u_929 + u_939 + u_949 = 2
equal_split_flow: 
 2 x_111 - 3 u_111 = 0
 2 x_112 - 4 u_112 = 0
 2 x_113 - 5 u_113 = 0
 2 x_114 - 6 u_114 = 0
 2 x_115 - 7 u_115 = 0
 2 x_116 - 8 u_116 = 0
 2 x_117 - 9 u_117 = 0
 2 x_118 - 10 u_118 = 0
 2 x_119 - 11 u_119 = 0
 2 x_121 - 3 u_121 = 0
 2 x_122 - 4 u_122 = 0
 2 x_123 - 5 u_123 = 0
 2 x_124 - 6 u_124 = 0
 2 x_125 - 7 u_125 = 0
 2 x_126 - 8 u_126 = 0
 2 x_127 - 9 u_127 = 0
 2 x_128 - 10 u_128 = 0
 2 x_129 - 11 u_129 = 0
 2 x_131 - 3 u_131 = 0
 2 x_132 - 4 u_132 = 0
 2 x_133 - 5 u_133 = 0
 2 x_134 - 6 u_134 = 0
 2 x_135 - 7 u_135 = 0
 2 x_136 - 8 u_136 = 0
 2 x_137 - 9 u_137 = 0
 2 x_138 - 10 u_138 = 0
 2 x_139 - 11 u_139 = 0
 2 x_141 - 3 u_141 = 0
 2 x_142 - 4 u_142 = 0
 2 x_143 - 5 u_143 = 0
 2 x_144 - 6 u_144 = 0
 2 x_145 - 7 u_145 = 0
 2 x_146 - 8 u_146 = 0
 2 x_147 - 9 u_147 = 0
 2 x_148 - 10 u_148 = 0
 2 x_149 - 11 u_149 = 0
 2 x_211 - 5 u_211 = 0
 2 x_212 - 6 u_212 = 0
 2 x_213 - 7 u_213 = 0
 2 x_214 - 8 u_214 = 0
 2 x_215 - 9 u_215 = 0
 2 x_216 - 10 u_216 = 0
 2 x_217 - 11 u_217 = 0
 2 x_218 - 12 u_218 = 0
 2 x_219 - 13 u_219 = 0
 2 x_221 - 5 u_221 = 0
 2 x_222 - 6 u_222 = 0
 2 x_223 - 7 u_223 = 0
 2 x_224 - 8 u_224 = 0
 2 x_225 - 9 u_225 = 0
 2 x_226 - 10 u_226 = 0
 2 x_227 - 11 u_227 = 0
 2 x_228 - 12 u_228 = 0
 2 x_229 - 13 u_229 = 0
 2 x_231 - 5 u_231 = 0
 2 x_232 - 6 u_232 = 0
 2 x_233 - 7 u_233 = 0
 2 x_234 - 8 u_234 = 0
 2 x_235 - 9 u_235 = 0
 2 x_236 - 10 u_236 = 0
 2 x_237 - 11 u_237 = 0
 2 x_238 - 12 u_238 = 0
 2 x_239 - 13 u_239 = 0
 2 x_241 - 5 u_241 = 0
 2 x_242 - 6 u_242 = 0
 2 x_243 - 7 u_243 = 0
 2 x_244 - 8 u_244 = 0
 2 x_245 - 9 u_245 = 0
 2 x_246 - 10 u_246 = 0
 2 x_247 - 11 u_247 = 0
 2 x_248 - 12 u_248 = 0
 2 x_249 - 13 u_249 = 0
 2 x_311 - 7 u_311 = 0
 2 x_312 - 8 u_312 = 0
 2 x_313 - 9 u_313 = 0
 2 x_314 - 10 u_314 = 0
 2 x_315 - 11 u_315 = 0
 2 x_316 - 12 u_316 = 0
 2 x_317 - 13 u_317 = 0
 2 x_318 - 14 u_318 = 0
 2 x_319 - 15 u_319 = 0
 2 x_321 - 7 u_321 = 0
 2 x_322 - 8 u_322 = 0
 2 x_323 - 9 u_323 = 0
 2 x_324 - 10 u_324 = 0
 2 x_325 - 11 u_325 = 0
 2 x_326 - 12 u_326 = 0
 2 x_327 - 13 u_327 = 0
 2 x_328 - 14 u_328 = 0
 2 x_329 - 15 u_329 = 0
 2 x_331 - 7 u_331 = 0
 2 x_332 - 8 u_332 = 0
 2 x_333 - 9 u_333 = 0
 2 x_334 - 10 u_334 = 0
 2 x_335 - 11 u_335 = 0
 2 x_336 - 12 u_336 = 0
 2 x_337 - 13 u_337 = 0
 2 x_338 - 14 u_338 = 0
 2 x_339 - 15 u_339 = 0
 2 x_341 - 7 u_341 = 0
 2 x_342 - 8 u_342 = 0
 2 x_343 - 9 u_343 = 0
 2 x_344 - 10 u_344 = 0
 2 x_345 - 11 u_345 = 0
 2 x_346 - 12 u_346 = 0
 2 x_347 - 13 u_347 = 0
 2 x_348 - 14 u_348 = 0
 2 x_349 - 15 u_349 = 0
 2 x_411 - 9 u_411 = 0
 2 x_412 - 10 u_412 = 0
 2 x_413 - 11 u_413 = 0
 2 x_414 - 12 u_414 = 0
 2 x_415 - 13 u_415 = 0
 2 x_416 - 14 u_416 = 0
 2 x_417 - 15 u_417 = 0
 2 x_418 - 16 u_418 = 0
 2 x_419 - 17 u_419 = 0
 2 x_421 - 9 u_421 = 0
 2 x_422 - 10 u_422 = 0
 2 x_423 - 11 u_423 = 0
 2 x_424 - 12 u_424 = 0
 2 x_425 - 13 u_425 = 0
 2 x_426 - 14 u_426 = 0
 2 x_427 - 15 u_427 = 0
 2 x_428 - 16 u_428 = 0
 2 x_429 - 17 u_429 = 0
 2 x_431 - 9 u_431 = 0
 2 x_432 - 10 u_432 = 0
 2 x_433 - 11 u_433 = 0
 2 x_434 - 12 u_434 = 0
 2 x_435 - 13 u_435 = 0
 2 x_436 - 14 u_436 = 0
 2 x_437 - 15 u_437 = 0
 2 x_438 - 16 u_438 = 0
 2 x_439 - 17 u_439 = 0
 2 x_441 - 9 u_441 = 0
 2 x_442 - 10 u_442 = 0
 2 x_443 - 11 u_443 = 0
 2 x_444 - 12 u_444 = 0
 2 x_445 - 13 u_445 = 0
 2 x_446 - 14 u_446 = 0
 2 x_447 - 15 u_447 = 0
 2 x_448 - 16 u_448 = 0
 2 x_449 - 17 u_449 = 0
 2 x_511 - 11 u_511 = 0
 2 x_512 - 12 u_512 = 0
 2 x_513 - 13 u_513 = 0
 2 x_514 - 14 u_514 = 0
 2 x_515 - 15 u_515 = 0
 2 x_516 - 16 u_516 = 0
 2 x_517 - 17 u_517 = 0
 2 x_518 - 18 u_518 = 0
 2 x_519 - 19 u_519 = 0
 2 x_521 - 11 u_521 = 0
 2 x_522 - 12 u_522 = 0
 2 x_523 - 13 u_523 = 0
 2 x_524 - 14 u_524 = 0
 2 x_525 - 15 u_525 = 0
 2 x_526 - 16 u_526 = 0
 2 x_527 - 17 u_527 = 0
 2 x_528 - 18 u_528 = 0
 2 x_529 - 19 u_529 = 0
 2 x_531 - 11 u_531 = 0
 2 x_532 - 12 u_532 = 0
 2 x_533 - 13 u_533 = 0
 2 x_534 - 14 u_534 = 0
 2 x_535 - 15 u_535 = 0
 2 x_536 - 16 u_536 = 0
 2 x_537 - 17 u_537 = 0
 2 x_538 - 18 u_538 = 0
 2 x_539 - 19 u_539 = 0
 2 x_541 - 11 u_541 = 0
 2 x_542 - 12 u_542 = 0
 2 x_543 - 13 u_543 = 0
 2 x_544 - 14 u_544 = 0
 2 x_545 - 15 u_545 = 0
 2 x_546 - 16 u_546 = 0
 2 x_547 - 17 u_547 = 0
 2 x_548 - 18 u_548 = 0
 2 x_549 - 19 u_549 = 0
 2 x_611 - 13 u_611 = 0
 2 x_612 - 14 u_612 = 0
 2 x_613 - 15 u_613 = 0
 2 x_614 - 16 u_614 = 0
 2 x_615 - 17 u_615 = 0
 2 x_616 - 18 u_616 = 0
 2 x_617 - 19 u_617 = 0
 2 x_618 - 20 u_618 = 0
 2 x_619 - 21 u_619 = 0
 2 x_621 - 13 u_621 = 0
 2 x_622 - 14 u_622 = 0
 2 x_623 - 15 u_623 = 0
 2 x_624 - 16 u_624 = 0
 2 x_625 - 17 u_625 = 0
 2 x_626 - 18 u_626 = 0
 2 x_627 - 19 u_627 = 0
 2 x_628 - 20 u_628 = 0
 2 x_629 - 21 u_629 = 0
 2 x_631 - 13 u_631 = 0
 2 x_632 - 14 u_632 = 0
 2 x_633 - 15 u_633 = 0
 2 x_634 - 16 u_634 = 0
 2 x_635 - 17 u_635 = 0
 2 x_636 - 18 u_636 = 0
 2 x_637 - 19 u_637 = 0
 2 x_638 - 20 u_638 = 0
 2 x_639 - 21 u_639 = 0
 2 x_641 - 13 u_641 = 0
 2 x_642 - 14 u_642 = 0
 2 x_643 - 15 u_643 = 0
 2 x_644 - 16 u_644 = 0
 2 x_645 - 17 u_645 = 0
 2 x_646 - 18 u_646 = 0
 2 x_647 - 19 u_647 = 0
 2 x_648 - 20 u_648 = 0
 2 x_649 - 21 u_649 = 0
 2 x_711 - 15 u_711 = 0
 2 x_712 - 16 u_712 = 0
 2 x_713 - 17 u_713 = 0
 2 x_714 - 18 u_714 = 0
 2 x_715 - 19 u_715 = 0
 2 x_716 - 20 u_716 = 0
 2 x_717 - 21 u_717 = 0
 2 x_718 - 22 u_718 = 0
 2 x_719 - 23 u_719 = 0
 2 x_721 - 15 u_721 = 0
 2 x_722 - 16 u_722 = 0
 2 x_723 - 17 u_723 = 0
 2 x_724 - 18 u_724 = 0
 2 x_725 - 19 u_725 = 0
 2 x_726 - 20 u_726 = 0
 2 x_727 - 21 u_727 = 0
 2 x_728 - 22 u_728 = 0
 2 x_729 - 23 u_729 = 0
 2 x_731 - 15 u_731 = 0
 2 x_732 - 16 u_732 = 0
 2 x_733 - 17 u_733 = 0
 2 x_734 - 18 u_734 = 0
 2 x_735 - 19 u_735 = 0
 2 x_736 - 20 u_736 = 0
 2 x_737 - 21 u_737 = 0
 2 x_738 - 22 u_738 = 0
 2 x_739 - 23 u_739 = 0
 2 x_741 - 15 u_741 = 0
 2 x_742 - 16 u_742 = 0
 2 x_743 - 17 u_743 = 0
 2 x_744 - 18 u_744 = 0
 2 x_745 - 19 u_745 = 0
 2 x_746 - 20 u_746 = 0
 2 x_747 - 21 u_747 = 0
 2 x_748 - 22 u_748 = 0
 2 x_749 - 23 u_749 = 0
 2 x_811 - 17 u_811 = 0
 2 x_812 - 18 u_812 = 0
 2 x_813 - 19 u_813 = 0
 2 x_814 - 20 u_814 = 0
 2 x_815 - 21 u_815 = 0
 2 x_816 - 22 u_816 = 0
 2 x_817 - 23 u_817 = 0
 2 x_818 - 24 u_818 = 0
 2 x_819 - 25 u_819 = 0
 2 x_821 - 17 u_821 = 0
 2 x_822 - 18 u_822 = 0
 2 x_823 - 19 u_823 = 0
 2 x_824 - 20 u_824 = 0
 2 x_825 - 21 u_825 = 0
 2 x_826 - 22 u_826 = 0
 2 x_827 - 23 u_827 = 0
 2 x_828 - 24 u_828 = 0
 2 x_829 - 25 u_829 = 0
 2 x_831 - 17 u_831 = 0
 2 x_832 - 18 u_832 = 0
 2 x_833 - 19 u_833 = 0
 2 x_834 - 20 u_834 = 0
 2 x_835 - 21 u_835 = 0
 2 x_836 - 22 u_836 = 0
 2 x_837 - 23 u_837 = 0
 2 x_838 - 24 u_838 = 0
 2 x_839 - 25 u_839 = 0
 2 x_841 - 17 u_841 = 0
 2 x_842 - 18 u_842 = 0
 2 x_843 - 19 u_843 = 0
 2 x_844 - 20 u_844 = 0
 2 x_845 - 21 u_845 = 0
 2 x_846 - 22 u_846 = 0
 2 x_847 - 23 u_847 = 0
 2 x_848 - 24 u_848 = 0
 2 x_849 - 25 u_849 = 0
 2 x_911 - 19 u_911 = 0
 2 x_912 - 20 u_912 = 0
 2 x_913 - 21 u_913 = 0
 2 x_914 - 22 u_914 = 0
 2 x_915 - 23 u_915 = 0
 2 x_916 - 24 u_916 = 0
 2 x_917 - 25 u_917 = 0
 2 x_918 - 26 u_918 = 0
 2 x_919 - 27 u_919 = 0
 2 x_921 - 19 u_921 = 0
 2 x_922 - 20 u_922 = 0
 2 x_923 - 21 u_923 = 0
 2 x_924 - 22 u_924 = 0
 2 x_925 - 23 u_925 = 0
 2 x_926 - 24 u_926 = 0
 2 x_927 - 25 u_927 = 0
 2 x_928 - 26 u_928 = 0
 2 x_929 - 27 u_929 = 0
 2 x_931 - 19 u_931 = 0
 2 x_932 - 20 u_932 = 0
 2 x_933 - 21 u_933 = 0
 2 x_934 - 22 u_934 = 0
 2 x_935 - 23 u_935 = 0
 2 x_936 - 24 u_936 = 0
 2 x_937 - 25 u_937 = 0
 2 x_938 - 26 u_938 = 0
 2 x_939 - 27 u_939 = 0
 2 x_941 - 19 u_941 = 0
 2 x_942 - 20 u_942 = 0
 2 x_943 - 21 u_943 = 0
 2 x_944 - 22 u_944 = 0
 2 x_945 - 23 u_945 = 0
 2 x_946 - 24 u_946 = 0
 2 x_947 - 25 u_947 = 0
 2 x_948 - 26 u_948 = 0
 2 x_949 - 27 u_949 = 0
transit_node_balance_load: 
 x_111 + x_112 + x_113 + x_114 + x_115 + x_116 + x_117 + x_118 + x_119 + x_211 + x_212 + x_213 + x_214 + x_215 + x_216 + x_217 + x_218 + x_219 + x_311 + x_312 + x_313 + x_314 + x_315 + x_316 + x_317 + x_318 + x_319 + x_411 + x_412 + x_413 + x_414 + x_415 + x_416 + x_417 + x_418 + x_419 + x_511 + x_512 + x_513 + x_514 + x_515 + x_516 + x_517 + x_518 + x_519 + x_611 + x_612 + x_613 + x_614 + x_615 + x_616 + x_617 + x_618 + x_619 + x_711 + x_712 + x_713 + x_714 + x_715 + x_716 + x_717 + x_718 + x_719 + x_811 + x_812 + x_813 + x_814 + x_815 + x_816 + x_817 + x_818 + x_819 + x_911 + x_912 + x_913 + x_914 + x_915 + x_916 + x_917 + x_918 + x_919 -r <= 0
 x_121 + x_122 + x_123 + x_124 + x_125 + x_126 + x_127 + x_128 + x_129 + x_221 + x_222 + x_223 + x_224 + x_225 + x_226 + x_227 + x_228 + x_229 + x_321 + x_322 + x_323 + x_324 + x_325 + x_326 + x_327 + x_328 + x_329 + x_421 + x_422 + x_423 + x_424 + x_425 + x_426 + x_427 + x_428 + x_429 + x_521 + x_522 + x_523 + x_524 + x_525 + x_526 + x_527 + x_528 + x_529 + x_621 + x_622 + x_623 + x_624 + x_625 + x_626 + x_627 + x_628 + x_629 + x_721 + x_722 + x_723 + x_724 + x_725 + x_726 + x_727 + x_728 + x_729 + x_821 + x_822 + x_823 + x_824 + x_825 + x_826 + x_827 + x_828 + x_829 + x_921 + x_922 + x_923 + x_924 + x_925 + x_926 + x_927 + x_928 + x_929 -r <= 0
 x_131 + x_132 + x_133 + x_134 + x_135 + x_136 + x_137 + x_138 + x_139 + x_231 + x_232 + x_233 + x_234 + x_235 + x_236 + x_237 + x_238 + x_239 + x_331 + x_332 + x_333 + x_334 + x_335 + x_336 + x_337 + x_338 + x_339 + x_431 + x_432 + x_433 + x_434 + x_435 + x_436 + x_437 + x_438 + x_439 + x_531 + x_532 + x_533 + x_534 + x_535 + x_536 + x_537 + x_538 + x_539 + x_631 + x_632 + x_633 + x_634 + x_635 + x_636 + x_637 + x_638 + x_639 + x_731 + x_732 + x_733 + x_734 + x_735 + x_736 + x_737 + x_738 + x_739 + x_831 + x_832 + x_833 + x_834 + x_835 + x_836 + x_837 + x_838 + x_839 + x_931 + x_932 + x_933 + x_934 + x_935 + x_936 + x_937 + x_938 + x_939 -r <= 0
 x_141 + x_142 + x_143 + x_144 + x_145 + x_146 + x_147 + x_148 + x_149 + x_241 + x_242 + x_243 + x_244 + x_245 + x_246 + x_247 + x_248 + x_249 + x_341 + x_342 + x_343 + x_344 + x_345 + x_346 + x_347 + x_348 + x_349 + x_441 + x_442 + x_443 + x_444 + x_445 + x_446 + x_447 + x_448 + x_449 + x_541 + x_542 + x_543 + x_544 + x_545 + x_546 + x_547 + x_548 + x_549 + x_641 + x_642 + x_643 + x_644 + x_645 + x_646 + x_647 + x_648 + x_649 + x_741 + x_742 + x_743 + x_744 + x_745 + x_746 + x_747 + x_748 + x_749 + x_841 + x_842 + x_843 + x_844 + x_845 + x_846 + x_847 + x_848 + x_849 + x_941 + x_942 + x_943 + x_944 + x_945 + x_946 + x_947 + x_948 + x_949 -r <= 0
Bounds
 0 <= x_111
 0 <= x_112
 0 <= x_113
 0 <= x_114
 0 <= x_115
 0 <= x_116
 0 <= x_117
 0 <= x_118
 0 <= x_119
 0 <= x_121
 0 <= x_122
 0 <= x_123
 0 <= x_124
 0 <= x_125
 0 <= x_126
 0 <= x_127
 0 <= x_128
 0 <= x_129
 0 <= x_131
 0 <= x_132
 0 <= x_133
 0 <= x_134
 0 <= x_135
 0 <= x_136
 0 <= x_137
 0 <= x_138
 0 <= x_139
 0 <= x_141
 0 <= x_142
 0 <= x_143
 0 <= x_144
 0 <= x_145
 0 <= x_146
 0 <= x_147
 0 <= x_148
 0 <= x_149
 0 <= x_211
 0 <= x_212
 0 <= x_213
 0 <= x_214
 0 <= x_215
 0 <= x_216
 0 <= x_217
 0 <= x_218
 0 <= x_219
 0 <= x_221
 0 <= x_222
 0 <= x_223
 0 <= x_224
 0 <= x_225
 0 <= x_226
 0 <= x_227
 0 <= x_228
 0 <= x_229
 0 <= x_231
 0 <= x_232
 0 <= x_233
 0 <= x_234
 0 <= x_235
 0 <= x_236
 0 <= x_237
 0 <= x_238
 0 <= x_239
 0 <= x_241
 0 <= x_242
 0 <= x_243
 0 <= x_244
 0 <= x_245
 0 <= x_246
 0 <= x_247
 0 <= x_248
 0 <= x_249
 0 <= x_311
 0 <= x_312
 0 <= x_313
 0 <= x_314
 0 <= x_315
 0 <= x_316
 0 <= x_317
 0 <= x_318
 0 <= x_319
 0 <= x_321
 0 <= x_322
 0 <= x_323
 0 <= x_324
 0 <= x_325
 0 <= x_326
 0 <= x_327
 0 <= x_328
 0 <= x_329
 0 <= x_331
 0 <= x_332
 0 <= x_333
 0 <= x_334
 0 <= x_335
 0 <= x_336
 0 <= x_337
 0 <= x_338
 0 <= x_339
 0 <= x_341
 0 <= x_342
 0 <= x_343
 0 <= x_344
 0 <= x_345
 0 <= x_346
 0 <= x_347
 0 <= x_348
 0 <= x_349
 0 <= x_411
 0 <= x_412
 0 <= x_413
 0 <= x_414
 0 <= x_415
 0 <= x_416
 0 <= x_417
 0 <= x_418
 0 <= x_419
 0 <= x_421
 0 <= x_422
 0 <= x_423
 0 <= x_424
 0 <= x_425
 0 <= x_426
 0 <= x_427
 0 <= x_428
 0 <= x_429
 0 <= x_431
 0 <= x_432
 0 <= x_433
 0 <= x_434
 0 <= x_435
 0 <= x_436
 0 <= x_437
 0 <= x_438
 0 <= x_439
 0 <= x_441
 0 <= x_442
 0 <= x_443
 0 <= x_444
 0 <= x_445
 0 <= x_446
 0 <= x_447
 0 <= x_448
 0 <= x_449
 0 <= x_511
 0 <= x_512
 0 <= x_513
 0 <= x_514
 0 <= x_515
 0 <= x_516
 0 <= x_517
 0 <= x_518
 0 <= x_519
 0 <= x_521
 0 <= x_522
 0 <= x_523
 0 <= x_524
 0 <= x_525
 0 <= x_526
 0 <= x_527
 0 <= x_528
 0 <= x_529
 0 <= x_531
 0 <= x_532
 0 <= x_533
 0 <= x_534
 0 <= x_535
 0 <= x_536
 0 <= x_537
 0 <= x_538
 0 <= x_539
 0 <= x_541
 0 <= x_542
 0 <= x_543
 0 <= x_544
 0 <= x_545
 0 <= x_546
 0 <= x_547
 0 <= x_548
 0 <= x_549
 0 <= x_611
 0 <= x_612
 0 <= x_613
 0 <= x_614
 0 <= x_615
 0 <= x_616
 0 <= x_617
 0 <= x_618
 0 <= x_619
 0 <= x_621
 0 <= x_622
 0 <= x_623
 0 <= x_624
 0 <= x_625
 0 <= x_626
 0 <= x_627
 0 <= x_628
 0 <= x_629
 0 <= x_631
 0 <= x_632
 0 <= x_633
 0 <= x_634
 0 <= x_635
 0 <= x_636
 0 <= x_637
 0 <= x_638
 0 <= x_639
 0 <= x_641
 0 <= x_642
 0 <= x_643
 0 <= x_644
 0 <= x_645
 0 <= x_646
 0 <= x_647
 0 <= x_648
 0 <= x_649
 0 <= x_711
 0 <= x_712
 0 <= x_713
 0 <= x_714
 0 <= x_715
 0 <= x_716
 0 <= x_717
 0 <= x_718
 0 <= x_719
 0 <= x_721
 0 <= x_722
 0 <= x_723
 0 <= x_724
 0 <= x_725
 0 <= x_726
 0 <= x_727
 0 <= x_728
 0 <= x_729
 0 <= x_731
 0 <= x_732
 0 <= x_733
 0 <= x_734
 0 <= x_735
 0 <= x_736
 0 <= x_737
 0 <= x_738
 0 <= x_739
 0 <= x_741
 0 <= x_742
 0 <= x_743
 0 <= x_744
 0 <= x_745
 0 <= x_746
 0 <= x_747
 0 <= x_748
 0 <= x_749
 0 <= x_811
 0 <= x_812
 0 <= x_813
 0 <= x_814
 0 <= x_815
 0 <= x_816
 0 <= x_817
 0 <= x_818
 0 <= x_819
 0 <= x_821
 0 <= x_822
 0 <= x_823
 0 <= x_824
 0 <= x_825
 0 <= x_826
 0 <= x_827
 0 <= x_828
 0 <= x_829
 0 <= x_831
 0 <= x_832
 0 <= x_833
 0 <= x_834
 0 <= x_835
 0 <= x_836
 0 <= x_837
 0 <= x_838
 0 <= x_839
 0 <= x_841
 0 <= x_842
 0 <= x_843
 0 <= x_844
 0 <= x_845
 0 <= x_846
 0 <= x_847
 0 <= x_848
 0 <= x_849
 0 <= x_911
 0 <= x_912
 0 <= x_913
 0 <= x_914
 0 <= x_915
 0 <= x_916
 0 <= x_917
 0 <= x_918
 0 <= x_919
 0 <= x_921
 0 <= x_922
 0 <= x_923
 0 <= x_924
 0 <= x_925
 0 <= x_926
 0 <= x_927
 0 <= x_928
 0 <= x_929
 0 <= x_931
 0 <= x_932
 0 <= x_933
 0 <= x_934
 0 <= x_935
 0 <= x_936
 0 <= x_937
 0 <= x_938
 0 <= x_939
 0 <= x_941
 0 <= x_942
 0 <= x_943
 0 <= x_944
 0 <= x_945
 0 <= x_946
 0 <= x_947
 0 <= x_948
 0 <= x_949
 0 <= r
Binary
 u_111
 u_112
 u_113
 u_114
 u_115
 u_116
 u_117
 u_118
 u_119
 u_121
 u_122
 u_123
 u_124
 u_125
 u_126
 u_127
 u_128
 u_129
 u_131
 u_132
 u_133
 u_134
 u_135
 u_136
 u_137
 u_138
 u_139
 u_141
 u_142
 u_143
 u_144
 u_145
 u_146
 u_147
 u_148
 u_149
 u_211
 u_212
 u_213
 u_214
 u_215
 u_216
 u_217
 u_218
 u_219
 u_221
 u_222
 u_223
 u_224
 u_225
 u_226
 u_227
 u_228
 u_229
 u_231
 u_232
 u_233
 u_234
 u_235
 u_236
 u_237
 u_238
 u_239
 u_241
 u_242
 u_243
 u_244
 u_245
 u_246
 u_247
 u_248
 u_249
 u_311
 u_312
 u_313
 u_314
 u_315
 u_316
 u_317
 u_318
 u_319
 u_321
 u_322
 u_323
 u_324
 u_325
 u_326
 u_327
 u_328
 u_329
 u_331
 u_332
 u_333
 u_334
 u_335
 u_336
 u_337
 u_338
 u_339
 u_341
 u_342
 u_343
 u_344
 u_345
 u_346
 u_347
 u_348
 u_349
 u_411
 u_412
 u_413
 u_414
 u_415
 u_416
 u_417
 u_418
 u_419
 u_421
 u_422
 u_423
 u_424
 u_425
 u_426
 u_427
 u_428
 u_429
 u_431
 u_432
 u_433
 u_434
 u_435
 u_436
 u_437
 u_438
 u_439
 u_441
 u_442
 u_443
 u_444
 u_445
 u_446
 u_447
 u_448
 u_449
 u_511
 u_512
 u_513
 u_514
 u_515
 u_516
 u_517
 u_518
 u_519
 u_521
 u_522
 u_523
 u_524
 u_525
 u_526
 u_527
 u_528
 u_529
 u_531
 u_532
 u_533
 u_534
 u_535
 u_536
 u_537
 u_538
 u_539
 u_541
 u_542
 u_543
 u_544
 u_545
 u_546
 u_547
 u_548
 u_549
 u_611
 u_612
 u_613
 u_614
 u_615
 u_616
 u_617
 u_618
 u_619
 u_621
 u_622
 u_623
 u_624
 u_625
 u_626
 u_627
 u_628
 u_629
 u_631
 u_632
 u_633
 u_634
 u_635
 u_636
 u_637
 u_638
 u_639
 u_641
 u_642
 u_643
 u_644
 u_645
 u_646
 u_647
 u_648
 u_649
 u_711
 u_712
 u_713
 u_714
 u_715
 u_716
 u_717
 u_718
 u_719
 u_721
 u_722
 u_723
 u_724
 u_725
 u_726
 u_727
 u_728
 u_729
 u_731
 u_732
 u_733
 u_734
 u_735
 u_736
 u_737
 u_738
 u_739
 u_741
 u_742
 u_743
 u_744
 u_745
 u_746
 u_747
 u_748
 u_749
 u_811
 u_812
 u_813
 u_814
 u_815
 u_816
 u_817
 u_818
 u_819
 u_821
 u_822
 u_823
 u_824
 u_825
 u_826
 u_827
 u_828
 u_829
 u_831
 u_832
 u_833
 u_834
 u_835
 u_836
 u_837
 u_838
 u_839
 u_841
 u_842
 u_843
 u_844
 u_845
 u_846
 u_847
 u_848
 u_849
 u_911
 u_912
 u_913
 u_914
 u_915
 u_916
 u_917
 u_918
 u_919
 u_921
 u_922
 u_923
 u_924
 u_925
 u_926
 u_927
 u_928
 u_929
 u_931
 u_932
 u_933
 u_934
 u_935
 u_936
 u_937
 u_938
 u_939
 u_941
 u_942
 u_943
 u_944
 u_945
 u_946
 u_947
 u_948
 u_949
End